50
    22    84    54    81    98    39    11    15    30    64    76    73     5    35    17    77     2    42    47    14    89    94    17    35    25    13    18    60    62    38    85    71    38    21    91    18    87    34    49    16    29    61    15    45    78     3    83    53    36    77
     8     8     9     1     9     2     7     4     5    10     6     3     1     9     6     6     8     8    10     3     4     4     9     2     7     6     1     2     8     9     3     2     9     2     6     9     7     9     1     1     6     9     3     4     9     5     9     7     4     6
  1027   889   447   527  1133   874     0   228     0     0     0   643   434   404   638   560   739    78   965   504   613   351   971   434     1   592   857   911     0   415   660   800   508     0   651     0   174     0  1027   474    19   452   906   761   996   517   818   324  1040    67
